(set-logic HORN)
(declare-fun state ((Array Int Int) Int Int Bool Bool Int Int) Bool)
(assert (forall ((|A_5| (Array Int Int)) (|B_5| Int) (|C_4| Int) (|.loc.3| Bool) (|.loc.4| Bool) (|D_2| Int) (|D_3| Int) (|.x.9| Int) (|v_3_1| Int) (|.x.8| (Array Int Int)) (|.loc.5| Bool) (|.loc.6| Bool) (|.xtv.1| Int) (|.xpv.1| Int)) (=> (and (and (not .loc.4) (not .loc.3)) (= B_5 0)) (state |A_5| |B_5| |C_4| |.loc.3| |.loc.4| |D_2| |D_3|))))
(assert (forall ((|A_5| (Array Int Int)) (|B_5| Int) (|C_4| Int) (|.loc.3| Bool) (|.loc.4| Bool) (|D_2| Int) (|D_3| Int) (|.x.9| Int) (|v_3_1| Int) (|.x.8| (Array Int Int)) (|.loc.5| Bool) (|.loc.6| Bool) (|.xtv.1| Int) (|.xpv.1| Int)) (=> (and (state |A_5| |B_5| |C_4| |.loc.3| |.loc.4| |D_2| |D_3|) (let ((.def_17 (not .loc.4))) (let ((.def_18 (not .loc.3))) (let ((.def_25 (<= C_4 B_5))) (let ((.def_26 (not .def_25))) (let ((.def_27 (and .loc.3 .def_26))) (let ((.def_33 (= (+ B_5 (* (- 1) v_3_1)) (- 1)))) (let ((.def_36 (not (<= B_5 D_2)))) (let ((.def_42 (= (store A_5 B_5 (+ D_2 (select A_5 B_5))) .x.8))) (let ((.def_47 (and (and .def_25 (= v_3_1 0)) (= A_5 .x.8)))) (let ((.def_48 (and .def_18 .def_47))) (let ((.def_54 (not .loc.5))) (let ((.def_69 (not .loc.6))) (and (= C_4 .x.9) (or (or (or (and (or (or (and (or (and (and (and .def_27 .def_33) .def_36) .def_42) .def_48) (and .loc.4 .loc.5)) (and .def_17 (and (and .loc.3 .def_47) .def_54))) (and .def_54 (and .def_42 (and .def_36 (and .def_33 (and .def_18 (and .loc.4 .def_26))))))) .loc.6) (and (and .def_17 (and .def_48 .loc.5)) .def_69)) (and .def_69 (and .def_17 (and .def_42 (and .def_36 (and .def_33 (and .def_27 .loc.5))))))) (and (= .x.8 (store A_5 B_5 D_2)) (and .def_69 (and .def_17 (and .def_54 (and .def_36 (and .def_33 (and .def_18 .def_26)))))))))))))))))))))) (state |.x.8| |v_3_1| |.x.9| |.loc.5| |.loc.6| |.xtv.1| |.xpv.1|))))
(assert (forall ((|A_5| (Array Int Int)) (|B_5| Int) (|C_4| Int) (|.loc.3| Bool) (|.loc.4| Bool) (|D_2| Int) (|D_3| Int) (|.x.9| Int) (|v_3_1| Int) (|.x.8| (Array Int Int)) (|.loc.5| Bool) (|.loc.6| Bool) (|.xtv.1| Int) (|.xpv.1| Int)) (=> (state |A_5| |B_5| |C_4| |.loc.3| |.loc.4| |D_2| |D_3|) (not (and (and .loc.3 .loc.4) (and (and (and (<= C_4 B_5) (not (<= D_3 0))) (<= (+ (* 4 D_3) (* (- 1) (select A_5 D_3))) 0)) (not (<= C_4 D_3))))))))
(check-sat)
